
Welcome to IBM(R) ILOG(R) CPLEX(R) Interactive Optimizer 22.1.1.0
  with Simplex, Mixed Integer & Barrier Optimizers
5725-A06 5725-A29 5724-Y48 5724-Y49 5724-Y54 5724-Y55 5655-Y21
Copyright IBM Corp. 1988, 2022.  All Rights Reserved.

Type 'help' for a list of available commands.
Type 'help' followed by a command name for more
information on commands.

CPLEX> Selected objective sense:  MINIMIZE
Selected objective  name:  00000000
Selected RHS        name:  RHS1
Selected bound      name:  BOUND
Problem 'ee.mps' read.
Read time = 0.03 sec. (3.14 ticks)
CPLEX> New value for time limit in seconds: 7200
CPLEX> New value for parallel optimization mode: -1
CPLEX> New value for default parallel thread count: 40
CPLEX> New value for mixed integer optimality gap tolerance: 1e-13
CPLEX> Version identifier: 22.1.1.0 | 2022-11-28 | 9160aff4d
CPXPARAM_Threads                                 40
CPXPARAM_Parallel                                -1
CPXPARAM_TimeLimit                               7200
CPXPARAM_MIP_Tolerances_MIPGap                   1e-13
Found incumbent of value 0.000000 after 0.00 sec. (0.31 ticks)
Tried aggregator 2 times.
MIP Presolve eliminated 182 rows and 2745 columns.
MIP Presolve modified 5862 coefficients.
Aggregator did 713 substitutions.
Reduced MIP has 3624 rows, 7744 columns, and 28667 nonzeros.
Reduced MIP has 7744 binaries, 0 generals, 0 SOSs, and 0 indicators.
Presolve time = 0.07 sec. (68.81 ticks)
Probing time = 0.03 sec. (5.30 ticks)
Tried aggregator 1 time.
Detecting symmetries...
Reduced MIP has 3624 rows, 7744 columns, and 28667 nonzeros.
Reduced MIP has 7744 binaries, 0 generals, 0 SOSs, and 0 indicators.
Presolve time = 0.02 sec. (21.93 ticks)
Probing time = 0.02 sec. (5.09 ticks)
Clique table members: 18558.
MIP emphasis: balance optimality and feasibility.
MIP search method: dynamic search.
Parallel mode: opportunistic, using up to 40 threads.
Root relaxation solution time = 0.18 sec. (147.17 ticks)

        Nodes                                         Cuts/
   Node  Left     Objective  IInf  Best Integer    Best Bound    ItCnt     Gap

*     0+    0                            0.0000  -1.31000e+13              --- 
*     0+    0                      -5.38000e+12  -1.31000e+13           143.49%
*     0+    0                      -5.50000e+12  -1.31000e+13           138.18%
      0     0  -1.30900e+13   109  -5.50000e+12  -1.30900e+13     3107  138.00%
*     0+    0                      -1.30900e+13  -1.30900e+13             0.00%
      0     0  -1.30900e+13   201  -1.30900e+13     Cuts: 105     3700    0.00%
      0     0  -1.30900e+13   260  -1.30900e+13      Cuts: 57     4281    0.00%
*     0+    0                      -1.30900e+13  -1.30900e+13             0.00%
      0    32    infeasible        -1.30900e+13  -1.30900e+13    21619    0.00%
Elapsed time = 2.86 sec. (1477.30 ticks, tree = 0.02 MB, solutions = 13)
     78     6  -1.30900e+13   175  -1.30900e+13  -1.30900e+13     5939    0.00%
    275    72  -1.30900e+13   153  -1.30900e+13  -1.30900e+13    88104    0.00%
*   355+   72                      -1.30900e+13  -1.30900e+13             0.00%
*   466+   77                      -1.30900e+13  -1.30900e+13             0.00%
    822    79        cutoff        -1.30900e+13  -1.30900e+13   103692    0.00%
*  1027    78      integral     0  -1.30900e+13  -1.30900e+13   121554    0.00%
*  1226    78      integral     0  -1.30900e+13  -1.30900e+13   131261    0.00%
   1552    72        cutoff        -1.30900e+13  -1.30900e+13    94611    0.00%
   2151    79  -1.30900e+13    98  -1.30900e+13  -1.30900e+13   132400    0.00%
   2681    95  -1.00000e+75     0  -1.30900e+13  -1.30900e+13   120109    0.00%
   2681    95  -1.30900e+13     0  -1.30900e+13  -1.30900e+13   120109    0.00%
   3192    70  -1.30900e+13    16  -1.30900e+13  -1.30900e+13   164897    0.00%
   3596    34        cutoff        -1.30900e+13  -1.30900e+13   229162    0.00%
   4015    30        cutoff        -1.30900e+13  -1.30900e+13   267823    0.00%
   6487    45  -1.30900e+13   167  -1.30900e+13  -1.30900e+13   326921    0.00%
Elapsed time = 11.46 sec. (4586.37 ticks, tree = 0.14 MB, solutions = 68)
   8586    32  -1.30900e+13   185  -1.30900e+13  -1.30900e+13   576671    0.00%
   9168    15  -1.30900e+13   116  -1.30900e+13  -1.30900e+13   682816    0.00%

GUB cover cuts applied:  3
Clique cuts applied:  13
Cover cuts applied:  1127
Flow cuts applied:  3
Mixed integer rounding cuts applied:  9
Zero-half cuts applied:  7
Lift and project cuts applied:  11
Gomory fractional cuts applied:  20

Root node processing (before b&c):
  Real time             =    1.64 sec. (1470.13 ticks)
Parallel b&c, 40 threads:
  Real time             =    9.88 sec. (5247.99 ticks)
  Sync time (average)   =    4.16 sec.
  Wait time (average)   =    0.00 sec.
                          ------------
Total (root+branch&cut) =   11.52 sec. (6718.12 ticks)

Solution pool: 68 solutions saved.

MIP - Integer optimal solution:  Objective = -1.3089998990e+13
Solution time =   11.67 sec.  Iterations = 710591  Nodes = 9192
Deterministic time = 6718.15 ticks  (575.85 ticks/sec)

CPLEX> Solution 'p69' written to file 'ee.sol'.
CPLEX> 